
Gurobi 9.0.1 (linux64) logging started Thu Apr 30 06:35:34 2020

Gurobi Optimizer version 9.0.1 build v9.0.1rc0 (linux64)
Optimize a model with 3972 rows, 3890 columns and 44800 nonzeros
Model fingerprint: 0x469eedab
Variable types: 0 continuous, 3890 integer (3872 binary)
Coefficient statistics:
  Matrix range     [1e+00, 9e+00]
  Objective range  [3e+00, 1e+02]
  Bounds range     [1e+00, 1e+00]
  RHS range        [1e+00, 1e+00]

User MIP start produced solution with objective 622 (0.02s)
Loaded user MIP start with objective 622

Presolve removed 1805 rows and 1319 columns
Presolve time: 0.22s
Presolved: 2167 rows, 2571 columns, 32928 nonzeros
Variable types: 0 continuous, 2571 integer (2571 binary)

Root relaxation: objective 3.637021e+02, 1125 iterations, 0.12 seconds

    Nodes    |    Current Node    |     Objective Bounds      |     Work
 Expl Unexpl |  Obj  Depth IntInf | Incumbent    BestBd   Gap | It/Node Time

     0     0  363.70207    0  385  622.00000  363.70207  41.5%     -    0s
     0     0  386.60522    0  381  622.00000  386.60522  37.8%     -    0s
     0     0  388.29710    0  353  622.00000  388.29710  37.6%     -    1s
     0     0  388.56985    0  372  622.00000  388.56985  37.5%     -    1s
     0     0  396.33769    0  376  622.00000  396.33769  36.3%     -    1s
     0     0  396.71738    0  371  622.00000  396.71738  36.2%     -    1s
     0     0  403.00645    0  401  622.00000  403.00645  35.2%     -    2s
     0     0  403.43957    0  387  622.00000  403.43957  35.1%     -    2s
     0     0  403.45092    0  387  622.00000  403.45092  35.1%     -    2s
     0     0  410.48901    0  409  622.00000  410.48901  34.0%     -    2s
     0     0  411.13766    0  408  622.00000  411.13766  33.9%     -    3s
     0     0  411.19712    0  421  622.00000  411.19712  33.9%     -    3s
     0     0  412.25857    0  440  622.00000  412.25857  33.7%     -    3s
     0     0  412.63762    0  433  622.00000  412.63762  33.7%     -    3s
     0     0  412.69627    0  431  622.00000  412.69627  33.7%     -    3s
     0     0  412.70709    0  442  622.00000  412.70709  33.6%     -    3s
     0     0  413.78983    0  414  622.00000  413.78983  33.5%     -    3s
     0     0  413.81862    0  426  622.00000  413.81862  33.5%     -    3s
     0     0  413.82327    0  427  622.00000  413.82327  33.5%     -    3s
     0     0  414.43342    0  432  622.00000  414.43342  33.4%     -    3s
     0     0  414.43944    0  422  622.00000  414.43944  33.4%     -    4s
     0     0  417.43458    0  432  622.00000  417.43458  32.9%     -    4s
     0     0  417.72339    0  438  622.00000  417.72339  32.8%     -    4s
     0     0  417.73075    0  437  622.00000  417.73075  32.8%     -    4s
     0     0  418.55781    0  430  622.00000  418.55781  32.7%     -    4s
     0     0  418.58625    0  431  622.00000  418.58625  32.7%     -    4s
     0     0  419.92969    0  416  622.00000  419.92969  32.5%     -    4s
     0     0  419.99862    0  421  622.00000  419.99862  32.5%     -    4s
     0     0  419.99862    0  422  622.00000  419.99862  32.5%     -    4s
     0     0  420.61754    0  442  622.00000  420.61754  32.4%     -    4s
     0     0  420.61935    0  437  622.00000  420.61935  32.4%     -    5s
     0     0  421.55583    0  438  622.00000  421.55583  32.2%     -    5s
     0     0  421.67806    0  438  622.00000  421.67806  32.2%     -    5s
     0     0  421.72653    0  439  622.00000  421.72653  32.2%     -    5s
     0     0  421.97246    0  437  622.00000  421.97246  32.2%     -    5s
     0     0  421.97619    0  436  622.00000  421.97619  32.2%     -    5s
     0     0  422.23290    0  420  622.00000  422.23290  32.1%     -    5s
     0     0  422.23290    0  406  622.00000  422.23290  32.1%     -    5s
     0     0  422.46794    0  367  622.00000  422.46794  32.1%     -    6s
     0     0  422.46794    0  363  622.00000  422.46794  32.1%     -    6s
     0     0  422.46794    0  418  622.00000  422.46794  32.1%     -    7s
     0     0  422.46794    0  427  622.00000  422.46794  32.1%     -    7s
     0     0  422.56250    0  438  622.00000  422.56250  32.1%     -    7s
     0     0  422.56638    0  437  622.00000  422.56638  32.1%     -    7s
     0     0  423.67297    0  430  622.00000  423.67297  31.9%     -    7s
     0     0  423.76517    0  426  622.00000  423.76517  31.9%     -    7s
     0     0  423.76517    0  427  622.00000  423.76517  31.9%     -    7s
     0     0  426.84289    0  419  622.00000  426.84289  31.4%     -    8s
     0     0  427.06532    0  418  622.00000  427.06532  31.3%     -    8s
     0     0  427.20316    0  429  622.00000  427.20316  31.3%     -    8s
     0     0  427.20627    0  431  622.00000  427.20627  31.3%     -    8s
     0     0  429.81013    0  431  622.00000  429.81013  30.9%     -    8s
     0     0  429.93647    0  426  622.00000  429.93647  30.9%     -    8s
     0     0  430.34577    0  429  622.00000  430.34577  30.8%     -    8s
     0     0  430.45384    0  441  622.00000  430.45384  30.8%     -    8s
     0     0  430.55935    0  439  622.00000  430.55935  30.8%     -    9s
     0     0  430.56914    0  445  622.00000  430.56914  30.8%     -    9s
     0     0  431.08908    0  427  622.00000  431.08908  30.7%     -    9s
     0     0  431.09831    0  431  622.00000  431.09831  30.7%     -    9s
     0     0  431.19131    0  430  622.00000  431.19131  30.7%     -    9s
     0     0  431.19131    0  421  622.00000  431.19131  30.7%     -    9s
     0     2  431.27760    0  414  622.00000  431.27760  30.7%     -    9s
     1     4  432.21502    1  408  622.00000  431.27760  30.7%   446   10s
   169   159  466.42646   16  317  622.00000  441.82478  29.0%   167   15s
*  244   229              64     612.0000000  441.82478  27.8%   156   16s
*  264   231              74     606.0000000  441.82478  27.1%   146   16s
   366   319  509.69048   16  269  606.00000  443.25999  26.9%   158   20s
   511   438  525.51893   27  406  606.00000  443.54666  26.8%   161   25s
   548   463  468.08849   31  446  606.00000  443.54666  26.8%   150   30s
   579   483  467.52262   16  479  606.00000  443.54666  26.8%   142   35s
   617   509  467.84167   16  509  606.00000  443.54666  26.8%   134   40s
   659   537  447.55174    7  481  606.00000  444.72167  26.6%   125   45s
   714   573  596.37500   72  473  606.00000  446.40890  26.3%   115   50s
   728   585  447.16724   15  457  606.00000  446.90569  26.3%   137   55s
   752   601  466.51282   27  360  606.00000  453.04143  25.2%   147   60s
   846   649  493.57001   18  374  606.00000  453.04143  25.2%   156   65s
H  943   576                     546.0000000  453.04143  17.0%   160   69s
   947   577  501.71258   17  368  546.00000  460.86233  15.6%   160   70s
  1078   615  474.97745   27  348  546.00000  461.20910  15.5%   158   75s
H 1132   551                     526.0000000  461.20910  12.3%   158   79s
  1188   550  523.49576   41  239  526.00000  461.62708  12.2%   154   80s
  1333   548  508.43773   23  339  526.00000  465.06501  11.6%   157   85s
  1519   534     cutoff   34       526.00000  468.98066  10.8%   155   90s
  1695   521  508.35256   26  205  526.00000  472.32340  10.2%   154   95s
  1817   494  476.41883   20  256  526.00000  474.54986  9.78%   156  100s
* 1825   450              27     523.0000000  474.54986  9.26%   156  100s
  1964   436  498.15956   31  320  523.00000  475.55732  9.07%   156  105s
  2177   412  502.79511   22  255  523.00000  478.22216  8.56%   151  110s
  2364   426     cutoff   28       523.00000  479.86931  8.25%   150  115s
  2589   452  514.22189   28  207  523.00000  481.42629  7.95%   147  120s
  2762   465     cutoff   32       523.00000  482.61716  7.72%   145  125s
  2966   507  484.47762   24  350  523.00000  483.86370  7.48%   143  130s
  3186   531  513.05270   30  299  523.00000  486.02573  7.07%   140  135s
  3428   551  507.96948   32  323  523.00000  487.14802  6.86%   137  140s
  3708   574  507.02224   35  291  523.00000  488.98161  6.50%   134  145s
  3897   595  509.35740   25  253  523.00000  489.92677  6.32%   134  150s
  4106   594  495.03153   22  357  523.00000  491.96383  5.93%   132  155s
  4352   600  514.08439   31  198  523.00000  493.54058  5.63%   131  160s
  4493   591  515.78584   28  272  523.00000  494.77854  5.40%   130  165s
  4743   578  510.72912   26  251  523.00000  496.78056  5.01%   128  170s
  4995   554  520.34343   34  330  523.00000  499.01905  4.59%   127  175s
  5241   527  503.30769   33  366  523.00000  500.99430  4.21%   126  180s
  5494   511 infeasible   38       523.00000  502.89511  3.84%   124  185s
  5798   456     cutoff   35       523.00000  505.41099  3.36%   123  190s
  5907   412  512.33784   29  287  523.00000  506.64312  3.13%   122  195s
  6273   258     cutoff   34       523.00000  511.72891  2.16%   119  200s

Cutting planes:
  Gomory: 3
  Cover: 1
  MIR: 69
  StrongCG: 2
  Flow cover: 75
  Inf proof: 28
  Zero half: 56
  Mod-K: 12
  RLT: 2

Explored 6659 nodes (780048 simplex iterations) in 204.22 seconds
Thread count was 1 (of 40 available processors)

Solution count 6: 523 526 546 ... 622

Optimal solution found (tolerance 1.00e-04)
Best objective 5.230000000000e+02, best bound 5.230000000000e+02, gap 0.0000%

User-callback calls 38422, time in user-callback 0.05 sec
